num_bands         =   14       
num_wann          =   7

num_iter          = 0
dis_num_iter      = 0
num_print_cycles  = 10


geninterp         = TRUE


Begin Atoms_Frac
Cu   0.00   0.00   0.00 
End Atoms_Frac    
Begin Projections     
random
End Projections       
    
begin kpoint_path
#L 0.50000  0.50000 0.5000 G 0.00000  0.00000 0.0000
#G 0.00000  0.00000 0.0000 X 0.50000  0.00000 0.5000
#X 0.50000 -0.50000 0.0000 K 0.37500 -0.37500 0.0000 
#K 0.37500 -0.37500 0.0000 G 0.00000  0.00000 0.0000
X 0.50000 -0.50000 0.0000 K 0.37500 -0.37500 0.0000 
end kpoint_path

Begin Unit_Cell_Cart
[Bohr]
-3.3650 0.0000 3.3650
 0.0000 3.3650 3.3650
-3.3650 3.3650 0.0000
End Unit_Cell_Cart


mp_grid      = 10 10 10


begin kpoints
  0.00000000  0.00000000  0.00000000 
  0.00000000  0.00000000  0.10000000 
  0.00000000  0.00000000  0.20000000 
  0.00000000  0.00000000  0.30000000 
  0.00000000  0.00000000  0.40000000 
  0.00000000  0.00000000  0.50000000 
  0.00000000  0.00000000  0.60000000 
  0.00000000  0.00000000  0.70000000 
  0.00000000  0.00000000  0.80000000 
  0.00000000  0.00000000  0.90000000 
  0.00000000  0.10000000  0.00000000 
  0.00000000  0.10000000  0.10000000 
  0.00000000  0.10000000  0.20000000 
  0.00000000  0.10000000  0.30000000 
  0.00000000  0.10000000  0.40000000 
  0.00000000  0.10000000  0.50000000 
  0.00000000  0.10000000  0.60000000 
  0.00000000  0.10000000  0.70000000 
  0.00000000  0.10000000  0.80000000 
  0.00000000  0.10000000  0.90000000 
  0.00000000  0.20000000  0.00000000 
  0.00000000  0.20000000  0.10000000 
  0.00000000  0.20000000  0.20000000 
  0.00000000  0.20000000  0.30000000 
  0.00000000  0.20000000  0.40000000 
  0.00000000  0.20000000  0.50000000 
  0.00000000  0.20000000  0.60000000 
  0.00000000  0.20000000  0.70000000 
  0.00000000  0.20000000  0.80000000 
  0.00000000  0.20000000  0.90000000 
  0.00000000  0.30000000  0.00000000 
  0.00000000  0.30000000  0.10000000 
  0.00000000  0.30000000  0.20000000 
  0.00000000  0.30000000  0.30000000 
  0.00000000  0.30000000  0.40000000 
  0.00000000  0.30000000  0.50000000 
  0.00000000  0.30000000  0.60000000 
  0.00000000  0.30000000  0.70000000 
  0.00000000  0.30000000  0.80000000 
  0.00000000  0.30000000  0.90000000 
  0.00000000  0.40000000  0.00000000 
  0.00000000  0.40000000  0.10000000 
  0.00000000  0.40000000  0.20000000 
  0.00000000  0.40000000  0.30000000 
  0.00000000  0.40000000  0.40000000 
  0.00000000  0.40000000  0.50000000 
  0.00000000  0.40000000  0.60000000 
  0.00000000  0.40000000  0.70000000 
  0.00000000  0.40000000  0.80000000 
  0.00000000  0.40000000  0.90000000 
  0.00000000  0.50000000  0.00000000 
  0.00000000  0.50000000  0.10000000 
  0.00000000  0.50000000  0.20000000 
  0.00000000  0.50000000  0.30000000 
  0.00000000  0.50000000  0.40000000 
  0.00000000  0.50000000  0.50000000 
  0.00000000  0.50000000  0.60000000 
  0.00000000  0.50000000  0.70000000 
  0.00000000  0.50000000  0.80000000 
  0.00000000  0.50000000  0.90000000 
  0.00000000  0.60000000  0.00000000 
  0.00000000  0.60000000  0.10000000 
  0.00000000  0.60000000  0.20000000 
  0.00000000  0.60000000  0.30000000 
  0.00000000  0.60000000  0.40000000 
  0.00000000  0.60000000  0.50000000 
  0.00000000  0.60000000  0.60000000 
  0.00000000  0.60000000  0.70000000 
  0.00000000  0.60000000  0.80000000 
  0.00000000  0.60000000  0.90000000 
  0.00000000  0.70000000  0.00000000 
  0.00000000  0.70000000  0.10000000 
  0.00000000  0.70000000  0.20000000 
  0.00000000  0.70000000  0.30000000 
  0.00000000  0.70000000  0.40000000 
  0.00000000  0.70000000  0.50000000 
  0.00000000  0.70000000  0.60000000 
  0.00000000  0.70000000  0.70000000 
  0.00000000  0.70000000  0.80000000 
  0.00000000  0.70000000  0.90000000 
  0.00000000  0.80000000  0.00000000 
  0.00000000  0.80000000  0.10000000 
  0.00000000  0.80000000  0.20000000 
  0.00000000  0.80000000  0.30000000 
  0.00000000  0.80000000  0.40000000 
  0.00000000  0.80000000  0.50000000 
  0.00000000  0.80000000  0.60000000 
  0.00000000  0.80000000  0.70000000 
  0.00000000  0.80000000  0.80000000 
  0.00000000  0.80000000  0.90000000 
  0.00000000  0.90000000  0.00000000 
  0.00000000  0.90000000  0.10000000 
  0.00000000  0.90000000  0.20000000 
  0.00000000  0.90000000  0.30000000 
  0.00000000  0.90000000  0.40000000 
  0.00000000  0.90000000  0.50000000 
  0.00000000  0.90000000  0.60000000 
  0.00000000  0.90000000  0.70000000 
  0.00000000  0.90000000  0.80000000 
  0.00000000  0.90000000  0.90000000 
  0.10000000  0.00000000  0.00000000 
  0.10000000  0.00000000  0.10000000 
  0.10000000  0.00000000  0.20000000 
  0.10000000  0.00000000  0.30000000 
  0.10000000  0.00000000  0.40000000 
  0.10000000  0.00000000  0.50000000 
  0.10000000  0.00000000  0.60000000 
  0.10000000  0.00000000  0.70000000 
  0.10000000  0.00000000  0.80000000 
  0.10000000  0.00000000  0.90000000 
  0.10000000  0.10000000  0.00000000 
  0.10000000  0.10000000  0.10000000 
  0.10000000  0.10000000  0.20000000 
  0.10000000  0.10000000  0.30000000 
  0.10000000  0.10000000  0.40000000 
  0.10000000  0.10000000  0.50000000 
  0.10000000  0.10000000  0.60000000 
  0.10000000  0.10000000  0.70000000 
  0.10000000  0.10000000  0.80000000 
  0.10000000  0.10000000  0.90000000 
  0.10000000  0.20000000  0.00000000 
  0.10000000  0.20000000  0.10000000 
  0.10000000  0.20000000  0.20000000 
  0.10000000  0.20000000  0.30000000 
  0.10000000  0.20000000  0.40000000 
  0.10000000  0.20000000  0.50000000 
  0.10000000  0.20000000  0.60000000 
  0.10000000  0.20000000  0.70000000 
  0.10000000  0.20000000  0.80000000 
  0.10000000  0.20000000  0.90000000 
  0.10000000  0.30000000  0.00000000 
  0.10000000  0.30000000  0.10000000 
  0.10000000  0.30000000  0.20000000 
  0.10000000  0.30000000  0.30000000 
  0.10000000  0.30000000  0.40000000 
  0.10000000  0.30000000  0.50000000 
  0.10000000  0.30000000  0.60000000 
  0.10000000  0.30000000  0.70000000 
  0.10000000  0.30000000  0.80000000 
  0.10000000  0.30000000  0.90000000 
  0.10000000  0.40000000  0.00000000 
  0.10000000  0.40000000  0.10000000 
  0.10000000  0.40000000  0.20000000 
  0.10000000  0.40000000  0.30000000 
  0.10000000  0.40000000  0.40000000 
  0.10000000  0.40000000  0.50000000 
  0.10000000  0.40000000  0.60000000 
  0.10000000  0.40000000  0.70000000 
  0.10000000  0.40000000  0.80000000 
  0.10000000  0.40000000  0.90000000 
  0.10000000  0.50000000  0.00000000 
  0.10000000  0.50000000  0.10000000 
  0.10000000  0.50000000  0.20000000 
  0.10000000  0.50000000  0.30000000 
  0.10000000  0.50000000  0.40000000 
  0.10000000  0.50000000  0.50000000 
  0.10000000  0.50000000  0.60000000 
  0.10000000  0.50000000  0.70000000 
  0.10000000  0.50000000  0.80000000 
  0.10000000  0.50000000  0.90000000 
  0.10000000  0.60000000  0.00000000 
  0.10000000  0.60000000  0.10000000 
  0.10000000  0.60000000  0.20000000 
  0.10000000  0.60000000  0.30000000 
  0.10000000  0.60000000  0.40000000 
  0.10000000  0.60000000  0.50000000 
  0.10000000  0.60000000  0.60000000 
  0.10000000  0.60000000  0.70000000 
  0.10000000  0.60000000  0.80000000 
  0.10000000  0.60000000  0.90000000 
  0.10000000  0.70000000  0.00000000 
  0.10000000  0.70000000  0.10000000 
  0.10000000  0.70000000  0.20000000 
  0.10000000  0.70000000  0.30000000 
  0.10000000  0.70000000  0.40000000 
  0.10000000  0.70000000  0.50000000 
  0.10000000  0.70000000  0.60000000 
  0.10000000  0.70000000  0.70000000 
  0.10000000  0.70000000  0.80000000 
  0.10000000  0.70000000  0.90000000 
  0.10000000  0.80000000  0.00000000 
  0.10000000  0.80000000  0.10000000 
  0.10000000  0.80000000  0.20000000 
  0.10000000  0.80000000  0.30000000 
  0.10000000  0.80000000  0.40000000 
  0.10000000  0.80000000  0.50000000 
  0.10000000  0.80000000  0.60000000 
  0.10000000  0.80000000  0.70000000 
  0.10000000  0.80000000  0.80000000 
  0.10000000  0.80000000  0.90000000 
  0.10000000  0.90000000  0.00000000 
  0.10000000  0.90000000  0.10000000 
  0.10000000  0.90000000  0.20000000 
  0.10000000  0.90000000  0.30000000 
  0.10000000  0.90000000  0.40000000 
  0.10000000  0.90000000  0.50000000 
  0.10000000  0.90000000  0.60000000 
  0.10000000  0.90000000  0.70000000 
  0.10000000  0.90000000  0.80000000 
  0.10000000  0.90000000  0.90000000 
  0.20000000  0.00000000  0.00000000 
  0.20000000  0.00000000  0.10000000 
  0.20000000  0.00000000  0.20000000 
  0.20000000  0.00000000  0.30000000 
  0.20000000  0.00000000  0.40000000 
  0.20000000  0.00000000  0.50000000 
  0.20000000  0.00000000  0.60000000 
  0.20000000  0.00000000  0.70000000 
  0.20000000  0.00000000  0.80000000 
  0.20000000  0.00000000  0.90000000 
  0.20000000  0.10000000  0.00000000 
  0.20000000  0.10000000  0.10000000 
  0.20000000  0.10000000  0.20000000 
  0.20000000  0.10000000  0.30000000 
  0.20000000  0.10000000  0.40000000 
  0.20000000  0.10000000  0.50000000 
  0.20000000  0.10000000  0.60000000 
  0.20000000  0.10000000  0.70000000 
  0.20000000  0.10000000  0.80000000 
  0.20000000  0.10000000  0.90000000 
  0.20000000  0.20000000  0.00000000 
  0.20000000  0.20000000  0.10000000 
  0.20000000  0.20000000  0.20000000 
  0.20000000  0.20000000  0.30000000 
  0.20000000  0.20000000  0.40000000 
  0.20000000  0.20000000  0.50000000 
  0.20000000  0.20000000  0.60000000 
  0.20000000  0.20000000  0.70000000 
  0.20000000  0.20000000  0.80000000 
  0.20000000  0.20000000  0.90000000 
  0.20000000  0.30000000  0.00000000 
  0.20000000  0.30000000  0.10000000 
  0.20000000  0.30000000  0.20000000 
  0.20000000  0.30000000  0.30000000 
  0.20000000  0.30000000  0.40000000 
  0.20000000  0.30000000  0.50000000 
  0.20000000  0.30000000  0.60000000 
  0.20000000  0.30000000  0.70000000 
  0.20000000  0.30000000  0.80000000 
  0.20000000  0.30000000  0.90000000 
  0.20000000  0.40000000  0.00000000 
  0.20000000  0.40000000  0.10000000 
  0.20000000  0.40000000  0.20000000 
  0.20000000  0.40000000  0.30000000 
  0.20000000  0.40000000  0.40000000 
  0.20000000  0.40000000  0.50000000 
  0.20000000  0.40000000  0.60000000 
  0.20000000  0.40000000  0.70000000 
  0.20000000  0.40000000  0.80000000 
  0.20000000  0.40000000  0.90000000 
  0.20000000  0.50000000  0.00000000 
  0.20000000  0.50000000  0.10000000 
  0.20000000  0.50000000  0.20000000 
  0.20000000  0.50000000  0.30000000 
  0.20000000  0.50000000  0.40000000 
  0.20000000  0.50000000  0.50000000 
  0.20000000  0.50000000  0.60000000 
  0.20000000  0.50000000  0.70000000 
  0.20000000  0.50000000  0.80000000 
  0.20000000  0.50000000  0.90000000 
  0.20000000  0.60000000  0.00000000 
  0.20000000  0.60000000  0.10000000 
  0.20000000  0.60000000  0.20000000 
  0.20000000  0.60000000  0.30000000 
  0.20000000  0.60000000  0.40000000 
  0.20000000  0.60000000  0.50000000 
  0.20000000  0.60000000  0.60000000 
  0.20000000  0.60000000  0.70000000 
  0.20000000  0.60000000  0.80000000 
  0.20000000  0.60000000  0.90000000 
  0.20000000  0.70000000  0.00000000 
  0.20000000  0.70000000  0.10000000 
  0.20000000  0.70000000  0.20000000 
  0.20000000  0.70000000  0.30000000 
  0.20000000  0.70000000  0.40000000 
  0.20000000  0.70000000  0.50000000 
  0.20000000  0.70000000  0.60000000 
  0.20000000  0.70000000  0.70000000 
  0.20000000  0.70000000  0.80000000 
  0.20000000  0.70000000  0.90000000 
  0.20000000  0.80000000  0.00000000 
  0.20000000  0.80000000  0.10000000 
  0.20000000  0.80000000  0.20000000 
  0.20000000  0.80000000  0.30000000 
  0.20000000  0.80000000  0.40000000 
  0.20000000  0.80000000  0.50000000 
  0.20000000  0.80000000  0.60000000 
  0.20000000  0.80000000  0.70000000 
  0.20000000  0.80000000  0.80000000 
  0.20000000  0.80000000  0.90000000 
  0.20000000  0.90000000  0.00000000 
  0.20000000  0.90000000  0.10000000 
  0.20000000  0.90000000  0.20000000 
  0.20000000  0.90000000  0.30000000 
  0.20000000  0.90000000  0.40000000 
  0.20000000  0.90000000  0.50000000 
  0.20000000  0.90000000  0.60000000 
  0.20000000  0.90000000  0.70000000 
  0.20000000  0.90000000  0.80000000 
  0.20000000  0.90000000  0.90000000 
  0.30000000  0.00000000  0.00000000 
  0.30000000  0.00000000  0.10000000 
  0.30000000  0.00000000  0.20000000 
  0.30000000  0.00000000  0.30000000 
  0.30000000  0.00000000  0.40000000 
  0.30000000  0.00000000  0.50000000 
  0.30000000  0.00000000  0.60000000 
  0.30000000  0.00000000  0.70000000 
  0.30000000  0.00000000  0.80000000 
  0.30000000  0.00000000  0.90000000 
  0.30000000  0.10000000  0.00000000 
  0.30000000  0.10000000  0.10000000 
  0.30000000  0.10000000  0.20000000 
  0.30000000  0.10000000  0.30000000 
  0.30000000  0.10000000  0.40000000 
  0.30000000  0.10000000  0.50000000 
  0.30000000  0.10000000  0.60000000 
  0.30000000  0.10000000  0.70000000 
  0.30000000  0.10000000  0.80000000 
  0.30000000  0.10000000  0.90000000 
  0.30000000  0.20000000  0.00000000 
  0.30000000  0.20000000  0.10000000 
  0.30000000  0.20000000  0.20000000 
  0.30000000  0.20000000  0.30000000 
  0.30000000  0.20000000  0.40000000 
  0.30000000  0.20000000  0.50000000 
  0.30000000  0.20000000  0.60000000 
  0.30000000  0.20000000  0.70000000 
  0.30000000  0.20000000  0.80000000 
  0.30000000  0.20000000  0.90000000 
  0.30000000  0.30000000  0.00000000 
  0.30000000  0.30000000  0.10000000 
  0.30000000  0.30000000  0.20000000 
  0.30000000  0.30000000  0.30000000 
  0.30000000  0.30000000  0.40000000 
  0.30000000  0.30000000  0.50000000 
  0.30000000  0.30000000  0.60000000 
  0.30000000  0.30000000  0.70000000 
  0.30000000  0.30000000  0.80000000 
  0.30000000  0.30000000  0.90000000 
  0.30000000  0.40000000  0.00000000 
  0.30000000  0.40000000  0.10000000 
  0.30000000  0.40000000  0.20000000 
  0.30000000  0.40000000  0.30000000 
  0.30000000  0.40000000  0.40000000 
  0.30000000  0.40000000  0.50000000 
  0.30000000  0.40000000  0.60000000 
  0.30000000  0.40000000  0.70000000 
  0.30000000  0.40000000  0.80000000 
  0.30000000  0.40000000  0.90000000 
  0.30000000  0.50000000  0.00000000 
  0.30000000  0.50000000  0.10000000 
  0.30000000  0.50000000  0.20000000 
  0.30000000  0.50000000  0.30000000 
  0.30000000  0.50000000  0.40000000 
  0.30000000  0.50000000  0.50000000 
  0.30000000  0.50000000  0.60000000 
  0.30000000  0.50000000  0.70000000 
  0.30000000  0.50000000  0.80000000 
  0.30000000  0.50000000  0.90000000 
  0.30000000  0.60000000  0.00000000 
  0.30000000  0.60000000  0.10000000 
  0.30000000  0.60000000  0.20000000 
  0.30000000  0.60000000  0.30000000 
  0.30000000  0.60000000  0.40000000 
  0.30000000  0.60000000  0.50000000 
  0.30000000  0.60000000  0.60000000 
  0.30000000  0.60000000  0.70000000 
  0.30000000  0.60000000  0.80000000 
  0.30000000  0.60000000  0.90000000 
  0.30000000  0.70000000  0.00000000 
  0.30000000  0.70000000  0.10000000 
  0.30000000  0.70000000  0.20000000 
  0.30000000  0.70000000  0.30000000 
  0.30000000  0.70000000  0.40000000 
  0.30000000  0.70000000  0.50000000 
  0.30000000  0.70000000  0.60000000 
  0.30000000  0.70000000  0.70000000 
  0.30000000  0.70000000  0.80000000 
  0.30000000  0.70000000  0.90000000 
  0.30000000  0.80000000  0.00000000 
  0.30000000  0.80000000  0.10000000 
  0.30000000  0.80000000  0.20000000 
  0.30000000  0.80000000  0.30000000 
  0.30000000  0.80000000  0.40000000 
  0.30000000  0.80000000  0.50000000 
  0.30000000  0.80000000  0.60000000 
  0.30000000  0.80000000  0.70000000 
  0.30000000  0.80000000  0.80000000 
  0.30000000  0.80000000  0.90000000 
  0.30000000  0.90000000  0.00000000 
  0.30000000  0.90000000  0.10000000 
  0.30000000  0.90000000  0.20000000 
  0.30000000  0.90000000  0.30000000 
  0.30000000  0.90000000  0.40000000 
  0.30000000  0.90000000  0.50000000 
  0.30000000  0.90000000  0.60000000 
  0.30000000  0.90000000  0.70000000 
  0.30000000  0.90000000  0.80000000 
  0.30000000  0.90000000  0.90000000 
  0.40000000  0.00000000  0.00000000 
  0.40000000  0.00000000  0.10000000 
  0.40000000  0.00000000  0.20000000 
  0.40000000  0.00000000  0.30000000 
  0.40000000  0.00000000  0.40000000 
  0.40000000  0.00000000  0.50000000 
  0.40000000  0.00000000  0.60000000 
  0.40000000  0.00000000  0.70000000 
  0.40000000  0.00000000  0.80000000 
  0.40000000  0.00000000  0.90000000 
  0.40000000  0.10000000  0.00000000 
  0.40000000  0.10000000  0.10000000 
  0.40000000  0.10000000  0.20000000 
  0.40000000  0.10000000  0.30000000 
  0.40000000  0.10000000  0.40000000 
  0.40000000  0.10000000  0.50000000 
  0.40000000  0.10000000  0.60000000 
  0.40000000  0.10000000  0.70000000 
  0.40000000  0.10000000  0.80000000 
  0.40000000  0.10000000  0.90000000 
  0.40000000  0.20000000  0.00000000 
  0.40000000  0.20000000  0.10000000 
  0.40000000  0.20000000  0.20000000 
  0.40000000  0.20000000  0.30000000 
  0.40000000  0.20000000  0.40000000 
  0.40000000  0.20000000  0.50000000 
  0.40000000  0.20000000  0.60000000 
  0.40000000  0.20000000  0.70000000 
  0.40000000  0.20000000  0.80000000 
  0.40000000  0.20000000  0.90000000 
  0.40000000  0.30000000  0.00000000 
  0.40000000  0.30000000  0.10000000 
  0.40000000  0.30000000  0.20000000 
  0.40000000  0.30000000  0.30000000 
  0.40000000  0.30000000  0.40000000 
  0.40000000  0.30000000  0.50000000 
  0.40000000  0.30000000  0.60000000 
  0.40000000  0.30000000  0.70000000 
  0.40000000  0.30000000  0.80000000 
  0.40000000  0.30000000  0.90000000 
  0.40000000  0.40000000  0.00000000 
  0.40000000  0.40000000  0.10000000 
  0.40000000  0.40000000  0.20000000 
  0.40000000  0.40000000  0.30000000 
  0.40000000  0.40000000  0.40000000 
  0.40000000  0.40000000  0.50000000 
  0.40000000  0.40000000  0.60000000 
  0.40000000  0.40000000  0.70000000 
  0.40000000  0.40000000  0.80000000 
  0.40000000  0.40000000  0.90000000 
  0.40000000  0.50000000  0.00000000 
  0.40000000  0.50000000  0.10000000 
  0.40000000  0.50000000  0.20000000 
  0.40000000  0.50000000  0.30000000 
  0.40000000  0.50000000  0.40000000 
  0.40000000  0.50000000  0.50000000 
  0.40000000  0.50000000  0.60000000 
  0.40000000  0.50000000  0.70000000 
  0.40000000  0.50000000  0.80000000 
  0.40000000  0.50000000  0.90000000 
  0.40000000  0.60000000  0.00000000 
  0.40000000  0.60000000  0.10000000 
  0.40000000  0.60000000  0.20000000 
  0.40000000  0.60000000  0.30000000 
  0.40000000  0.60000000  0.40000000 
  0.40000000  0.60000000  0.50000000 
  0.40000000  0.60000000  0.60000000 
  0.40000000  0.60000000  0.70000000 
  0.40000000  0.60000000  0.80000000 
  0.40000000  0.60000000  0.90000000 
  0.40000000  0.70000000  0.00000000 
  0.40000000  0.70000000  0.10000000 
  0.40000000  0.70000000  0.20000000 
  0.40000000  0.70000000  0.30000000 
  0.40000000  0.70000000  0.40000000 
  0.40000000  0.70000000  0.50000000 
  0.40000000  0.70000000  0.60000000 
  0.40000000  0.70000000  0.70000000 
  0.40000000  0.70000000  0.80000000 
  0.40000000  0.70000000  0.90000000 
  0.40000000  0.80000000  0.00000000 
  0.40000000  0.80000000  0.10000000 
  0.40000000  0.80000000  0.20000000 
  0.40000000  0.80000000  0.30000000 
  0.40000000  0.80000000  0.40000000 
  0.40000000  0.80000000  0.50000000 
  0.40000000  0.80000000  0.60000000 
  0.40000000  0.80000000  0.70000000 
  0.40000000  0.80000000  0.80000000 
  0.40000000  0.80000000  0.90000000 
  0.40000000  0.90000000  0.00000000 
  0.40000000  0.90000000  0.10000000 
  0.40000000  0.90000000  0.20000000 
  0.40000000  0.90000000  0.30000000 
  0.40000000  0.90000000  0.40000000 
  0.40000000  0.90000000  0.50000000 
  0.40000000  0.90000000  0.60000000 
  0.40000000  0.90000000  0.70000000 
  0.40000000  0.90000000  0.80000000 
  0.40000000  0.90000000  0.90000000 
  0.50000000  0.00000000  0.00000000 
  0.50000000  0.00000000  0.10000000 
  0.50000000  0.00000000  0.20000000 
  0.50000000  0.00000000  0.30000000 
  0.50000000  0.00000000  0.40000000 
  0.50000000  0.00000000  0.50000000 
  0.50000000  0.00000000  0.60000000 
  0.50000000  0.00000000  0.70000000 
  0.50000000  0.00000000  0.80000000 
  0.50000000  0.00000000  0.90000000 
  0.50000000  0.10000000  0.00000000 
  0.50000000  0.10000000  0.10000000 
  0.50000000  0.10000000  0.20000000 
  0.50000000  0.10000000  0.30000000 
  0.50000000  0.10000000  0.40000000 
  0.50000000  0.10000000  0.50000000 
  0.50000000  0.10000000  0.60000000 
  0.50000000  0.10000000  0.70000000 
  0.50000000  0.10000000  0.80000000 
  0.50000000  0.10000000  0.90000000 
  0.50000000  0.20000000  0.00000000 
  0.50000000  0.20000000  0.10000000 
  0.50000000  0.20000000  0.20000000 
  0.50000000  0.20000000  0.30000000 
  0.50000000  0.20000000  0.40000000 
  0.50000000  0.20000000  0.50000000 
  0.50000000  0.20000000  0.60000000 
  0.50000000  0.20000000  0.70000000 
  0.50000000  0.20000000  0.80000000 
  0.50000000  0.20000000  0.90000000 
  0.50000000  0.30000000  0.00000000 
  0.50000000  0.30000000  0.10000000 
  0.50000000  0.30000000  0.20000000 
  0.50000000  0.30000000  0.30000000 
  0.50000000  0.30000000  0.40000000 
  0.50000000  0.30000000  0.50000000 
  0.50000000  0.30000000  0.60000000 
  0.50000000  0.30000000  0.70000000 
  0.50000000  0.30000000  0.80000000 
  0.50000000  0.30000000  0.90000000 
  0.50000000  0.40000000  0.00000000 
  0.50000000  0.40000000  0.10000000 
  0.50000000  0.40000000  0.20000000 
  0.50000000  0.40000000  0.30000000 
  0.50000000  0.40000000  0.40000000 
  0.50000000  0.40000000  0.50000000 
  0.50000000  0.40000000  0.60000000 
  0.50000000  0.40000000  0.70000000 
  0.50000000  0.40000000  0.80000000 
  0.50000000  0.40000000  0.90000000 
  0.50000000  0.50000000  0.00000000 
  0.50000000  0.50000000  0.10000000 
  0.50000000  0.50000000  0.20000000 
  0.50000000  0.50000000  0.30000000 
  0.50000000  0.50000000  0.40000000 
  0.50000000  0.50000000  0.50000000 
  0.50000000  0.50000000  0.60000000 
  0.50000000  0.50000000  0.70000000 
  0.50000000  0.50000000  0.80000000 
  0.50000000  0.50000000  0.90000000 
  0.50000000  0.60000000  0.00000000 
  0.50000000  0.60000000  0.10000000 
  0.50000000  0.60000000  0.20000000 
  0.50000000  0.60000000  0.30000000 
  0.50000000  0.60000000  0.40000000 
  0.50000000  0.60000000  0.50000000 
  0.50000000  0.60000000  0.60000000 
  0.50000000  0.60000000  0.70000000 
  0.50000000  0.60000000  0.80000000 
  0.50000000  0.60000000  0.90000000 
  0.50000000  0.70000000  0.00000000 
  0.50000000  0.70000000  0.10000000 
  0.50000000  0.70000000  0.20000000 
  0.50000000  0.70000000  0.30000000 
  0.50000000  0.70000000  0.40000000 
  0.50000000  0.70000000  0.50000000 
  0.50000000  0.70000000  0.60000000 
  0.50000000  0.70000000  0.70000000 
  0.50000000  0.70000000  0.80000000 
  0.50000000  0.70000000  0.90000000 
  0.50000000  0.80000000  0.00000000 
  0.50000000  0.80000000  0.10000000 
  0.50000000  0.80000000  0.20000000 
  0.50000000  0.80000000  0.30000000 
  0.50000000  0.80000000  0.40000000 
  0.50000000  0.80000000  0.50000000 
  0.50000000  0.80000000  0.60000000 
  0.50000000  0.80000000  0.70000000 
  0.50000000  0.80000000  0.80000000 
  0.50000000  0.80000000  0.90000000 
  0.50000000  0.90000000  0.00000000 
  0.50000000  0.90000000  0.10000000 
  0.50000000  0.90000000  0.20000000 
  0.50000000  0.90000000  0.30000000 
  0.50000000  0.90000000  0.40000000 
  0.50000000  0.90000000  0.50000000 
  0.50000000  0.90000000  0.60000000 
  0.50000000  0.90000000  0.70000000 
  0.50000000  0.90000000  0.80000000 
  0.50000000  0.90000000  0.90000000 
  0.60000000  0.00000000  0.00000000 
  0.60000000  0.00000000  0.10000000 
  0.60000000  0.00000000  0.20000000 
  0.60000000  0.00000000  0.30000000 
  0.60000000  0.00000000  0.40000000 
  0.60000000  0.00000000  0.50000000 
  0.60000000  0.00000000  0.60000000 
  0.60000000  0.00000000  0.70000000 
  0.60000000  0.00000000  0.80000000 
  0.60000000  0.00000000  0.90000000 
  0.60000000  0.10000000  0.00000000 
  0.60000000  0.10000000  0.10000000 
  0.60000000  0.10000000  0.20000000 
  0.60000000  0.10000000  0.30000000 
  0.60000000  0.10000000  0.40000000 
  0.60000000  0.10000000  0.50000000 
  0.60000000  0.10000000  0.60000000 
  0.60000000  0.10000000  0.70000000 
  0.60000000  0.10000000  0.80000000 
  0.60000000  0.10000000  0.90000000 
  0.60000000  0.20000000  0.00000000 
  0.60000000  0.20000000  0.10000000 
  0.60000000  0.20000000  0.20000000 
  0.60000000  0.20000000  0.30000000 
  0.60000000  0.20000000  0.40000000 
  0.60000000  0.20000000  0.50000000 
  0.60000000  0.20000000  0.60000000 
  0.60000000  0.20000000  0.70000000 
  0.60000000  0.20000000  0.80000000 
  0.60000000  0.20000000  0.90000000 
  0.60000000  0.30000000  0.00000000 
  0.60000000  0.30000000  0.10000000 
  0.60000000  0.30000000  0.20000000 
  0.60000000  0.30000000  0.30000000 
  0.60000000  0.30000000  0.40000000 
  0.60000000  0.30000000  0.50000000 
  0.60000000  0.30000000  0.60000000 
  0.60000000  0.30000000  0.70000000 
  0.60000000  0.30000000  0.80000000 
  0.60000000  0.30000000  0.90000000 
  0.60000000  0.40000000  0.00000000 
  0.60000000  0.40000000  0.10000000 
  0.60000000  0.40000000  0.20000000 
  0.60000000  0.40000000  0.30000000 
  0.60000000  0.40000000  0.40000000 
  0.60000000  0.40000000  0.50000000 
  0.60000000  0.40000000  0.60000000 
  0.60000000  0.40000000  0.70000000 
  0.60000000  0.40000000  0.80000000 
  0.60000000  0.40000000  0.90000000 
  0.60000000  0.50000000  0.00000000 
  0.60000000  0.50000000  0.10000000 
  0.60000000  0.50000000  0.20000000 
  0.60000000  0.50000000  0.30000000 
  0.60000000  0.50000000  0.40000000 
  0.60000000  0.50000000  0.50000000 
  0.60000000  0.50000000  0.60000000 
  0.60000000  0.50000000  0.70000000 
  0.60000000  0.50000000  0.80000000 
  0.60000000  0.50000000  0.90000000 
  0.60000000  0.60000000  0.00000000 
  0.60000000  0.60000000  0.10000000 
  0.60000000  0.60000000  0.20000000 
  0.60000000  0.60000000  0.30000000 
  0.60000000  0.60000000  0.40000000 
  0.60000000  0.60000000  0.50000000 
  0.60000000  0.60000000  0.60000000 
  0.60000000  0.60000000  0.70000000 
  0.60000000  0.60000000  0.80000000 
  0.60000000  0.60000000  0.90000000 
  0.60000000  0.70000000  0.00000000 
  0.60000000  0.70000000  0.10000000 
  0.60000000  0.70000000  0.20000000 
  0.60000000  0.70000000  0.30000000 
  0.60000000  0.70000000  0.40000000 
  0.60000000  0.70000000  0.50000000 
  0.60000000  0.70000000  0.60000000 
  0.60000000  0.70000000  0.70000000 
  0.60000000  0.70000000  0.80000000 
  0.60000000  0.70000000  0.90000000 
  0.60000000  0.80000000  0.00000000 
  0.60000000  0.80000000  0.10000000 
  0.60000000  0.80000000  0.20000000 
  0.60000000  0.80000000  0.30000000 
  0.60000000  0.80000000  0.40000000 
  0.60000000  0.80000000  0.50000000 
  0.60000000  0.80000000  0.60000000 
  0.60000000  0.80000000  0.70000000 
  0.60000000  0.80000000  0.80000000 
  0.60000000  0.80000000  0.90000000 
  0.60000000  0.90000000  0.00000000 
  0.60000000  0.90000000  0.10000000 
  0.60000000  0.90000000  0.20000000 
  0.60000000  0.90000000  0.30000000 
  0.60000000  0.90000000  0.40000000 
  0.60000000  0.90000000  0.50000000 
  0.60000000  0.90000000  0.60000000 
  0.60000000  0.90000000  0.70000000 
  0.60000000  0.90000000  0.80000000 
  0.60000000  0.90000000  0.90000000 
  0.70000000  0.00000000  0.00000000 
  0.70000000  0.00000000  0.10000000 
  0.70000000  0.00000000  0.20000000 
  0.70000000  0.00000000  0.30000000 
  0.70000000  0.00000000  0.40000000 
  0.70000000  0.00000000  0.50000000 
  0.70000000  0.00000000  0.60000000 
  0.70000000  0.00000000  0.70000000 
  0.70000000  0.00000000  0.80000000 
  0.70000000  0.00000000  0.90000000 
  0.70000000  0.10000000  0.00000000 
  0.70000000  0.10000000  0.10000000 
  0.70000000  0.10000000  0.20000000 
  0.70000000  0.10000000  0.30000000 
  0.70000000  0.10000000  0.40000000 
  0.70000000  0.10000000  0.50000000 
  0.70000000  0.10000000  0.60000000 
  0.70000000  0.10000000  0.70000000 
  0.70000000  0.10000000  0.80000000 
  0.70000000  0.10000000  0.90000000 
  0.70000000  0.20000000  0.00000000 
  0.70000000  0.20000000  0.10000000 
  0.70000000  0.20000000  0.20000000 
  0.70000000  0.20000000  0.30000000 
  0.70000000  0.20000000  0.40000000 
  0.70000000  0.20000000  0.50000000 
  0.70000000  0.20000000  0.60000000 
  0.70000000  0.20000000  0.70000000 
  0.70000000  0.20000000  0.80000000 
  0.70000000  0.20000000  0.90000000 
  0.70000000  0.30000000  0.00000000 
  0.70000000  0.30000000  0.10000000 
  0.70000000  0.30000000  0.20000000 
  0.70000000  0.30000000  0.30000000 
  0.70000000  0.30000000  0.40000000 
  0.70000000  0.30000000  0.50000000 
  0.70000000  0.30000000  0.60000000 
  0.70000000  0.30000000  0.70000000 
  0.70000000  0.30000000  0.80000000 
  0.70000000  0.30000000  0.90000000 
  0.70000000  0.40000000  0.00000000 
  0.70000000  0.40000000  0.10000000 
  0.70000000  0.40000000  0.20000000 
  0.70000000  0.40000000  0.30000000 
  0.70000000  0.40000000  0.40000000 
  0.70000000  0.40000000  0.50000000 
  0.70000000  0.40000000  0.60000000 
  0.70000000  0.40000000  0.70000000 
  0.70000000  0.40000000  0.80000000 
  0.70000000  0.40000000  0.90000000 
  0.70000000  0.50000000  0.00000000 
  0.70000000  0.50000000  0.10000000 
  0.70000000  0.50000000  0.20000000 
  0.70000000  0.50000000  0.30000000 
  0.70000000  0.50000000  0.40000000 
  0.70000000  0.50000000  0.50000000 
  0.70000000  0.50000000  0.60000000 
  0.70000000  0.50000000  0.70000000 
  0.70000000  0.50000000  0.80000000 
  0.70000000  0.50000000  0.90000000 
  0.70000000  0.60000000  0.00000000 
  0.70000000  0.60000000  0.10000000 
  0.70000000  0.60000000  0.20000000 
  0.70000000  0.60000000  0.30000000 
  0.70000000  0.60000000  0.40000000 
  0.70000000  0.60000000  0.50000000 
  0.70000000  0.60000000  0.60000000 
  0.70000000  0.60000000  0.70000000 
  0.70000000  0.60000000  0.80000000 
  0.70000000  0.60000000  0.90000000 